c SAT Expression for N=1_4 queens
c Chess board has 16 positions
p cnf 16 84
1_1 1_2 1_3 1_4 0
-1_1 -1_2 0
-1_1 -1_3 0
-1_1 -1_4 0
-1_2 -1_3 0
-1_2 -1_4 0
-1_3 -1_4 0
2_1 2_2 2_3 2_4 0
-2_1 -2_2 0
-2_1 -2_3 0
-2_1 -2_4 0
-2_2 -2_3 0
-2_2 -2_4 0
-2_3 -2_4 0
3_1 3_2 3_3 3_4 0
-3_1 -3_2 0
-3_1 -3_3 0
-3_1 -3_4 0
-3_2 -3_3 0
-3_2 -3_4 0
-3_3 -3_4 0
4_1 4_2 4_3 4_4 0
-4_1 -4_2 0
-4_1 -4_3 0
-4_1 -4_4 0
-4_2 -4_3 0
-4_2 -4_4 0
-4_3 -4_4 0
1_1 2_1 3_1 4_1 0
-1_1 -2_1 0
-1_1 -3_1 0
-1_1 -4_1 0
-2_1 -3_1 0
-2_1 -4_1 0
-3_1 -4_1 0
1_2 2_2 3_2 4_2 0
-1_2 -2_2 0
-1_2 -3_2 0
-1_2 -4_2 0
-2_2 -3_2 0
-2_2 -4_2 0
-3_2 -4_2 0
1_3 2_3 3_3 4_3 0
-1_3 -2_3 0
-1_3 -3_3 0
-1_3 -4_3 0
-2_3 -3_3 0
-2_3 -4_3 0
-3_3 -4_3 0
1_4 2_4 3_4 4_4 0
-1_4 -2_4 0
-1_4 -3_4 0
-1_4 -4_4 0
-2_4 -3_4 0
-2_4 -4_4 0
-3_4 -4_4 0
-3_1 -4_2 0
-2_1 -3_2 0
-2_1 -4_3 0
-3_2 -4_3 0
-1_1 -2_2 0
-1_1 -3_3 0
-1_1 -4_4 0
-2_2 -3_3 0
-2_2 -4_4 0
-3_3 -4_4 0
-1_2 -2_3 0
-1_2 -3_4 0
-2_3 -3_4 0
-1_3 -2_4 0
-3_4 -4_3 0
-2_4 -3_3 0
-2_4 -4_2 0
-3_3 -4_2 0
-1_4 -2_3 0
-1_4 -3_2 0
-1_4 -4_1 0
-2_3 -3_2 0
-2_3 -4_1 0
-3_2 -4_1 0
-1_3 -2_2 0
-1_3 -3_1 0
-2_2 -3_1 0
-1_2 -2_1 0